400, 38817
68, 68
230, 230
300, 300
350, 350
78, 78
388, 388
36, 36
200, 200
222, 222
26, 26
212, 212
32, 32
306, 306
156, 156
206, 206
186, 186
78, 78
136, 136
62, 62
358, 358
56, 56
272, 272
98, 98
68, 68
386, 386
12, 12
390, 390
194, 194
116, 116
386, 386
268, 268
258, 258
194, 194
152, 152
182, 182
218, 218
286, 286
258, 258
256, 256
118, 118
252, 252
124, 124
124, 124
90, 90
94, 94
210, 210
330, 330
162, 162
124, 124
12, 12
4, 4
104, 104
242, 242
312, 312
50, 50
294, 294
86, 86
16, 16
240, 240
132, 132
244, 244
378, 378
76, 76
74, 74
86, 86
382, 382
372, 372
106, 106
374, 374
98, 98
18, 18
70, 70
152, 152
370, 370
372, 372
396, 396
278, 278
74, 74
312, 312
386, 386
284, 284
326, 326
134, 134
14, 14
236, 236
130, 130
114, 114
220, 220
192, 192
58, 58
164, 164
290, 290
74, 74
54, 54
166, 166
32, 32
264, 264
12, 12
280, 280
350, 350
120, 120
70, 70
268, 268
380, 380
390, 390
304, 304
192, 192
30, 30
288, 288
42, 42
142, 142
84, 84
276, 276
362, 362
216, 216
266, 266
172, 172
354, 354
324, 324
90, 90
54, 54
30, 30
84, 84
176, 176
90, 90
72, 72
162, 162
326, 326
218, 218
230, 230
22, 22
204, 204
202, 202
292, 292
290, 290
268, 268
298, 298
348, 348
146, 146
226, 226
12, 12
226, 226
28, 28
184, 184
118, 118
44, 44
48, 48
258, 258
148, 148
94, 94
238, 238
84, 84
122, 122
356, 356
232, 232
2, 2
264, 264
54, 54
210, 210
192, 192
160, 160
130, 130
18, 18
264, 264
62, 62
110, 110
396, 396
170, 170
342, 342
362, 362
258, 258
44, 44
160, 160
344, 344
218, 218
18, 18
230, 230
112, 112
256, 256
266, 266
266, 266
88, 88
146, 146
30, 30
36, 36
10, 10
224, 224
190, 190
358, 358
166, 166
314, 314
68, 68
190, 190
66, 66
290, 290
198, 198
314, 314
90, 90
58, 58
394, 394
208, 208
254, 254
352, 352
242, 242
352, 352
368, 368
200, 200
280, 280
312, 312
380, 380
188, 188
54, 54
208, 208
340, 340
118, 118
302, 302
180, 180
282, 282
194, 194
310, 310
188, 188
24, 24
238, 238
260, 260
234, 234
152, 152
104, 104
200, 200
384, 384
26, 26
240, 240
80, 80
122, 122
74, 74
210, 210
70, 70
208, 208
302, 302
158, 158
142, 142
368, 368
64, 64
136, 136
168, 168
362, 362
120, 120
382, 382
132, 132
400, 400
116, 116
370, 370
302, 302
236, 236
370, 370
96, 96
278, 278
54, 54
60, 60
266, 266
292, 292
100, 100
226, 226
212, 212
64, 64
396, 396
372, 372
28, 28
380, 380
180, 180
36, 36
62, 62
262, 262
100, 100
4, 4
346, 346
262, 262
62, 62
262, 262
316, 316
70, 70
58, 58
78, 78
162, 162
218, 218
264, 264
344, 344
282, 282
366, 366
38, 38
128, 128
170, 170
302, 302
12, 12
200, 200
250, 250
76, 76
54, 54
334, 334
210, 210
8, 8
190, 190
378, 378
362, 362
196, 196
246, 246
138, 138
22, 22
228, 228
256, 256
388, 388
180, 180
200, 200
376, 376
282, 282
42, 42
112, 112
216, 216
190, 190
314, 314
46, 46
158, 158
296, 296
188, 188
24, 24
252, 252
238, 238
36, 36
204, 204
30, 30
190, 190
312, 312
224, 224
294, 294
50, 50
42, 42
398, 398
58, 58
86, 86
188, 188
310, 310
354, 354
52, 52
382, 382
398, 398
14, 14
368, 368
122, 122
130, 130
124, 124
150, 150
294, 294
28, 28
50, 50
58, 58
374, 374
186, 186
228, 228
136, 136
88, 88
386, 386
326, 326
136, 136
240, 240
324, 324
110, 110
222, 222
192, 192
264, 264
4, 4
284, 284
148, 148
96, 96
248, 248
396, 396
394, 394
302, 302
112, 112
238, 238
312, 312
164, 164
284, 284
152, 152
114, 114
314, 314
120, 120
70, 70
138, 138
180, 180
30, 30
60, 60
344, 344
114, 114
292, 292
286, 286
96, 96
350, 350
170, 170
68, 68
96, 96
324, 324
